;--------------------------------------------------------------------------
; Benchmark created with Zazu
; Benchmark: 		fermat_norm_inv1_2xlen3
; Created:   		2022-01-11 18:12
; Generator of the ideal: 
; 		 4*r - 4*r00 - 2*u00 + 2*u - 2*v + 2*v00 - u^2 + v^2 + u00^2 - v00^2
; Testing invariant: -r^2*u^4*v^3*v00^2 - 2*r*u^4*u00*v + r^2*u^3*v^4 + 2*r^2*u^3*v^6 + 2*r*u^3*v^4 - r^2*u^3*v^7 - r*u^3*v^5 - r*u^3*u00^2*v^3 - 2*r*u^3*v^3*v00 - 6*r^2*u^3*v^3 - r^2*u^7*v^3 + r*u^5*u00^2*v + r^2*u^3*u00^2*v^2 + r^2*u^5*u00^2*v^3 + 2*r^2*u^4*v^3*v00 + 4*r^2*r00*u^3*v^5 - 2*r^2*u^3*u00*v^2 - 4*r^2*r00*u^3*v^2 + 2*r^2*u^4*u00 - r^2*u^3*u00^2*v^5 + 2*r^2*u^3*u00*v^5 - r*u^4*v^3 - 2*r*u^4*v^2 + 2*r*u^4*v*v00 + 2*r*u^3*u00*v^3 - r*u^7*v + r^2*u^6*v^3 - r^2*u^3*v^2*v00^2 - 4*r^3*u^4 - 4*r^3*u^5 - r*u^5*v*v00^2 + r^2*u^3*v^5*v00^2 - 2*r^2*u^3*v^5*v00 + 4*r^3*u^3*v^2 + r*u^4*u00^2*v - 4*r^3*u^3*v^5 - 4*r^2*r00*u^4*v^3 + 4*r*r00*u^3*v^3 - 2*r^2*u^5*v00 + 2*r^2*u^5*v^3*v00 + 2*r*u^5*v^3 + 4*r^2*r00*u^5 - 2*r*u^5*v^2 - 4*r*r00*u^4*v + r^2*u^7 + r*u^6*v - r^2*u^4*u00^2 - 2*r^2*u^5*v^2 + 2*r^2*u^5*v^3 - 2*r^2*u^5*v^4 - r^2*u^6 + 2*r^2*u^5*v^5 - 2*r^2*u^5 - r^2*u^5*v^3*v00^2 + 2*r^2*u^3*v^2*v00 + 2*r*u^5*v*v00 - 2*r^2*u^5*u00*v^3 + r^2*u^4*v00^2 + 6*r^2*u^5*v + 4*r^3*u^4*v^3 - r^2*u^5*u00^2 - 4*r^2*r00*u^5*v^3 + r*u^3*v^3*v00^2 - 2*r^2*u^4*v00 + r^2*u^4*u00^2*v^3 + 2*r*u^5*v + r^2*u^5*v00^2 + 2*r^2*u^5*u00 - r^2*u^4*v^5 - 4*r*r00*u^5*v + r^2*u^4*v^2 - 2*r^2*u^4*v^4 - 2*r^2*u^4*u00*v^3 - r*u^4*v*v00^2 + 6*r^2*u^4*v + 4*r^3*u^5*v^3 + 4*r^2*r00*u^4 - 2*r*u^5*u00*v
;--------------------------------------------------------------------------

(set-logic NIA)
(set-option :produce-proofs true)

(declare-const r00 Int)
(declare-const u00 Int)
(declare-const v00 Int)

(assert 
	(exists
		((r Int) (u Int) (v Int))
		(and
			(= (- (+ (- (+ (- (+ (- (* 4 r) (* 4 r00) (* 2 u00)) (* 2 u)) (* 2 v)) (* 2 v00)) (* u u)) (* v v) (* u00 u00)) (* v00 v00)) 0)

			(or
				(not (= (- (+ (- (+ (- (+ (- (+ (- (+ (- (+ (- (+ (- (+ (- (+ (- (+ (- (+ (- (+ (- (+ (- (+ (- (+ (- (+ (- (+ (- (+ (- (+ (- (* (- 1) (- r v) (- r v) u u u u (+ v 2) (+ v 2) (+ v 2) v00 v00) (* 2 (- r v) u u u u u00 (+ v 2))) (* (- r v) (- r v) u u u (+ v 2) (+ v 2) (+ v 2) (+ v 2)) (* 2 (- r v) (- r v) u u u (+ v 2) (+ v 2) (+ v 2) (+ v 2) (+ v 2) (+ v 2)) (* 2 (- r v) u u u (+ v 2) (+ v 2) (+ v 2) (+ v 2))) (* (- r v) (- r v) u u u (+ v 2) (+ v 2) (+ v 2) (+ v 2) (+ v 2) (+ v 2) (+ v 2)) (* (- r v) u u u (+ v 2) (+ v 2) (+ v 2) (+ v 2) (+ v 2)) (* (- r v) u u u u00 u00 (+ v 2) (+ v 2) (+ v 2)) (* 2 (- r v) u u u (+ v 2) (+ v 2) (+ v 2) v00) (* 6 (- r v) (- r v) u u u (+ v 2) (+ v 2) (+ v 2)) (* (- r v) (- r v) u u u u u u u (+ v 2) (+ v 2) (+ v 2))) (* (- r v) u u u u u u00 u00 (+ v 2)) (* (- r v) (- r v) u u u u00 u00 (+ v 2) (+ v 2)) (* (- r v) (- r v) u u u u u u00 u00 (+ v 2) (+ v 2) (+ v 2)) (* 2 (- r v) (- r v) u u u u (+ v 2) (+ v 2) (+ v 2) v00) (* 4 (- r v) (- r v) r00 u u u (+ v 2) (+ v 2) (+ v 2) (+ v 2) (+ v 2))) (* 2 (- r v) (- r v) u u u u00 (+ v 2) (+ v 2)) (* 4 (- r v) (- r v) r00 u u u (+ v 2) (+ v 2))) (* 2 (- r v) (- r v) u u u u u00)) (* (- r v) (- r v) u u u u00 u00 (+ v 2) (+ v 2) (+ v 2) (+ v 2) (+ v 2))) (* 2 (- r v) (- r v) u u u u00 (+ v 2) (+ v 2) (+ v 2) (+ v 2) (+ v 2))) (* (- r v) u u u u (+ v 2) (+ v 2) (+ v 2)) (* 2 (- r v) u u u u (+ v 2) (+ v 2))) (* 2 (- r v) u u u u (+ v 2) v00) (* 2 (- r v) u u u u00 (+ v 2) (+ v 2) (+ v 2))) (* (- r v) u u u u u u u (+ v 2))) (* (- r v) (- r v) u u u u u u (+ v 2) (+ v 2) (+ v 2))) (* (- r v) (- r v) u u u (+ v 2) (+ v 2) v00 v00) (* 4 (- r v) (- r v) (- r v) u u u u) (* 4 (- r v) (- r v) (- r v) u u u u u) (* (- r v) u u u u u (+ v 2) v00 v00)) (* (- r v) (- r v) u u u (+ v 2) (+ v 2) (+ v 2) (+ v 2) (+ v 2) v00 v00)) (* 2 (- r v) (- r v) u u u (+ v 2) (+ v 2) (+ v 2) (+ v 2) (+ v 2) v00)) (* 4 (- r v) (- r v) (- r v) u u u (+ v 2) (+ v 2)) (* (- r v) u u u u u00 u00 (+ v 2))) (* 4 (- r v) (- r v) (- r v) u u u (+ v 2) (+ v 2) (+ v 2) (+ v 2) (+ v 2)) (* 4 (- r v) (- r v) r00 u u u u (+ v 2) (+ v 2) (+ v 2))) (* 4 (- r v) r00 u u u (+ v 2) (+ v 2) (+ v 2))) (* 2 (- r v) (- r v) u u u u u v00)) (* 2 (- r v) (- r v) u u u u u (+ v 2) (+ v 2) (+ v 2) v00) (* 2 (- r v) u u u u u (+ v 2) (+ v 2) (+ v 2)) (* 4 (- r v) (- r v) r00 u u u u u)) (* 2 (- r v) u u u u u (+ v 2) (+ v 2)) (* 4 (- r v) r00 u u u u (+ v 2))) (* (- r v) (- r v) u u u u u u u) (* (- r v) u u u u u u (+ v 2))) (* (- r v) (- r v) u u u u u00 u00) (* 2 (- r v) (- r v) u u u u u (+ v 2) (+ v 2))) (* 2 (- r v) (- r v) u u u u u (+ v 2) (+ v 2) (+ v 2))) (* 2 (- r v) (- r v) u u u u u (+ v 2) (+ v 2) (+ v 2) (+ v 2)) (* (- r v) (- r v) u u u u u u)) (* 2 (- r v) (- r v) u u u u u (+ v 2) (+ v 2) (+ v 2) (+ v 2) (+ v 2))) (* 2 (- r v) (- r v) u u u u u) (* (- r v) (- r v) u u u u u (+ v 2) (+ v 2) (+ v 2) v00 v00)) (* 2 (- r v) (- r v) u u u (+ v 2) (+ v 2) v00) (* 2 (- r v) u u u u u (+ v 2) v00)) (* 2 (- r v) (- r v) u u u u u u00 (+ v 2) (+ v 2) (+ v 2))) (* (- r v) (- r v) u u u u v00 v00) (* 6 (- r v) (- r v) u u u u u (+ v 2)) (* 4 (- r v) (- r v) (- r v) u u u u (+ v 2) (+ v 2) (+ v 2))) (* (- r v) (- r v) u u u u u u00 u00) (* 4 (- r v) (- r v) r00 u u u u u (+ v 2) (+ v 2) (+ v 2))) (* (- r v) u u u (+ v 2) (+ v 2) (+ v 2) v00 v00)) (* 2 (- r v) (- r v) u u u u v00)) (* (- r v) (- r v) u u u u u00 u00 (+ v 2) (+ v 2) (+ v 2)) (* 2 (- r v) u u u u u (+ v 2)) (* (- r v) (- r v) u u u u u v00 v00) (* 2 (- r v) (- r v) u u u u u u00)) (* (- r v) (- r v) u u u u (+ v 2) (+ v 2) (+ v 2) (+ v 2) (+ v 2)) (* 4 (- r v) r00 u u u u u (+ v 2))) (* (- r v) (- r v) u u u u (+ v 2) (+ v 2))) (* 2 (- r v) (- r v) u u u u (+ v 2) (+ v 2) (+ v 2) (+ v 2)) (* 2 (- r v) (- r v) u u u u u00 (+ v 2) (+ v 2) (+ v 2)) (* (- r v) u u u u (+ v 2) v00 v00)) (* 6 (- r v) (- r v) u u u u (+ v 2)) (* 4 (- r v) (- r v) (- r v) u u u u u (+ v 2) (+ v 2) (+ v 2)) (* 4 (- r v) (- r v) r00 u u u u)) (* 2 (- r v) u u u u u u00 (+ v 2))) 0))
				(not (= (- (+ (- (+ (- (+ (- (+ (- (+ (- (+ (- (+ (- (+ (- (+ (- (+ (- (+ (- (+ (- (+ (- (+ (- (+ (- (+ (- (+ (- (+ (- (+ (- (* (- 1) (+ r u) (+ r u) (+ u 2) (+ u 2) (+ u 2) (+ u 2) v v v v00 v00) (* 2 (+ r u) (+ u 2) (+ u 2) (+ u 2) (+ u 2) u00 v)) (* (+ r u) (+ r u) (+ u 2) (+ u 2) (+ u 2) v v v v) (* 2 (+ r u) (+ r u) (+ u 2) (+ u 2) (+ u 2) v v v v v v) (* 2 (+ r u) (+ u 2) (+ u 2) (+ u 2) v v v v)) (* (+ r u) (+ r u) (+ u 2) (+ u 2) (+ u 2) v v v v v v v) (* (+ r u) (+ u 2) (+ u 2) (+ u 2) v v v v v) (* (+ r u) (+ u 2) (+ u 2) (+ u 2) u00 u00 v v v) (* 2 (+ r u) (+ u 2) (+ u 2) (+ u 2) v v v v00) (* 6 (+ r u) (+ r u) (+ u 2) (+ u 2) (+ u 2) v v v) (* (+ r u) (+ r u) (+ u 2) (+ u 2) (+ u 2) (+ u 2) (+ u 2) (+ u 2) (+ u 2) v v v)) (* (+ r u) (+ u 2) (+ u 2) (+ u 2) (+ u 2) (+ u 2) u00 u00 v) (* (+ r u) (+ r u) (+ u 2) (+ u 2) (+ u 2) u00 u00 v v) (* (+ r u) (+ r u) (+ u 2) (+ u 2) (+ u 2) (+ u 2) (+ u 2) u00 u00 v v v) (* 2 (+ r u) (+ r u) (+ u 2) (+ u 2) (+ u 2) (+ u 2) v v v v00) (* 4 (+ r u) (+ r u) r00 (+ u 2) (+ u 2) (+ u 2) v v v v v)) (* 2 (+ r u) (+ r u) (+ u 2) (+ u 2) (+ u 2) u00 v v) (* 4 (+ r u) (+ r u) r00 (+ u 2) (+ u 2) (+ u 2) v v)) (* 2 (+ r u) (+ r u) (+ u 2) (+ u 2) (+ u 2) (+ u 2) u00)) (* (+ r u) (+ r u) (+ u 2) (+ u 2) (+ u 2) u00 u00 v v v v v)) (* 2 (+ r u) (+ r u) (+ u 2) (+ u 2) (+ u 2) u00 v v v v v)) (* (+ r u) (+ u 2) (+ u 2) (+ u 2) (+ u 2) v v v) (* 2 (+ r u) (+ u 2) (+ u 2) (+ u 2) (+ u 2) v v)) (* 2 (+ r u) (+ u 2) (+ u 2) (+ u 2) (+ u 2) v v00) (* 2 (+ r u) (+ u 2) (+ u 2) (+ u 2) u00 v v v)) (* (+ r u) (+ u 2) (+ u 2) (+ u 2) (+ u 2) (+ u 2) (+ u 2) (+ u 2) v)) (* (+ r u) (+ r u) (+ u 2) (+ u 2) (+ u 2) (+ u 2) (+ u 2) (+ u 2) v v v)) (* (+ r u) (+ r u) (+ u 2) (+ u 2) (+ u 2) v v v00 v00) (* 4 (+ r u) (+ r u) (+ r u) (+ u 2) (+ u 2) (+ u 2) (+ u 2)) (* 4 (+ r u) (+ r u) (+ r u) (+ u 2) (+ u 2) (+ u 2) (+ u 2) (+ u 2)) (* (+ r u) (+ u 2) (+ u 2) (+ u 2) (+ u 2) (+ u 2) v v00 v00)) (* (+ r u) (+ r u) (+ u 2) (+ u 2) (+ u 2) v v v v v v00 v00)) (* 2 (+ r u) (+ r u) (+ u 2) (+ u 2) (+ u 2) v v v v v v00)) (* 4 (+ r u) (+ r u) (+ r u) (+ u 2) (+ u 2) (+ u 2) v v) (* (+ r u) (+ u 2) (+ u 2) (+ u 2) (+ u 2) u00 u00 v)) (* 4 (+ r u) (+ r u) (+ r u) (+ u 2) (+ u 2) (+ u 2) v v v v v) (* 4 (+ r u) (+ r u) r00 (+ u 2) (+ u 2) (+ u 2) (+ u 2) v v v)) (* 4 (+ r u) r00 (+ u 2) (+ u 2) (+ u 2) v v v)) (* 2 (+ r u) (+ r u) (+ u 2) (+ u 2) (+ u 2) (+ u 2) (+ u 2) v00)) (* 2 (+ r u) (+ r u) (+ u 2) (+ u 2) (+ u 2) (+ u 2) (+ u 2) v v v v00) (* 2 (+ r u) (+ u 2) (+ u 2) (+ u 2) (+ u 2) (+ u 2) v v v) (* 4 (+ r u) (+ r u) r00 (+ u 2) (+ u 2) (+ u 2) (+ u 2) (+ u 2))) (* 2 (+ r u) (+ u 2) (+ u 2) (+ u 2) (+ u 2) (+ u 2) v v) (* 4 (+ r u) r00 (+ u 2) (+ u 2) (+ u 2) (+ u 2) v)) (* (+ r u) (+ r u) (+ u 2) (+ u 2) (+ u 2) (+ u 2) (+ u 2) (+ u 2) (+ u 2)) (* (+ r u) (+ u 2) (+ u 2) (+ u 2) (+ u 2) (+ u 2) (+ u 2) v)) (* (+ r u) (+ r u) (+ u 2) (+ u 2) (+ u 2) (+ u 2) u00 u00) (* 2 (+ r u) (+ r u) (+ u 2) (+ u 2) (+ u 2) (+ u 2) (+ u 2) v v)) (* 2 (+ r u) (+ r u) (+ u 2) (+ u 2) (+ u 2) (+ u 2) (+ u 2) v v v)) (* 2 (+ r u) (+ r u) (+ u 2) (+ u 2) (+ u 2) (+ u 2) (+ u 2) v v v v) (* (+ r u) (+ r u) (+ u 2) (+ u 2) (+ u 2) (+ u 2) (+ u 2) (+ u 2))) (* 2 (+ r u) (+ r u) (+ u 2) (+ u 2) (+ u 2) (+ u 2) (+ u 2) v v v v v)) (* 2 (+ r u) (+ r u) (+ u 2) (+ u 2) (+ u 2) (+ u 2) (+ u 2)) (* (+ r u) (+ r u) (+ u 2) (+ u 2) (+ u 2) (+ u 2) (+ u 2) v v v v00 v00)) (* 2 (+ r u) (+ r u) (+ u 2) (+ u 2) (+ u 2) v v v00) (* 2 (+ r u) (+ u 2) (+ u 2) (+ u 2) (+ u 2) (+ u 2) v v00)) (* 2 (+ r u) (+ r u) (+ u 2) (+ u 2) (+ u 2) (+ u 2) (+ u 2) u00 v v v)) (* (+ r u) (+ r u) (+ u 2) (+ u 2) (+ u 2) (+ u 2) v00 v00) (* 6 (+ r u) (+ r u) (+ u 2) (+ u 2) (+ u 2) (+ u 2) (+ u 2) v) (* 4 (+ r u) (+ r u) (+ r u) (+ u 2) (+ u 2) (+ u 2) (+ u 2) v v v)) (* (+ r u) (+ r u) (+ u 2) (+ u 2) (+ u 2) (+ u 2) (+ u 2) u00 u00) (* 4 (+ r u) (+ r u) r00 (+ u 2) (+ u 2) (+ u 2) (+ u 2) (+ u 2) v v v)) (* (+ r u) (+ u 2) (+ u 2) (+ u 2) v v v v00 v00)) (* 2 (+ r u) (+ r u) (+ u 2) (+ u 2) (+ u 2) (+ u 2) v00)) (* (+ r u) (+ r u) (+ u 2) (+ u 2) (+ u 2) (+ u 2) u00 u00 v v v) (* 2 (+ r u) (+ u 2) (+ u 2) (+ u 2) (+ u 2) (+ u 2) v) (* (+ r u) (+ r u) (+ u 2) (+ u 2) (+ u 2) (+ u 2) (+ u 2) v00 v00) (* 2 (+ r u) (+ r u) (+ u 2) (+ u 2) (+ u 2) (+ u 2) (+ u 2) u00)) (* (+ r u) (+ r u) (+ u 2) (+ u 2) (+ u 2) (+ u 2) v v v v v) (* 4 (+ r u) r00 (+ u 2) (+ u 2) (+ u 2) (+ u 2) (+ u 2) v)) (* (+ r u) (+ r u) (+ u 2) (+ u 2) (+ u 2) (+ u 2) v v)) (* 2 (+ r u) (+ r u) (+ u 2) (+ u 2) (+ u 2) (+ u 2) v v v v) (* 2 (+ r u) (+ r u) (+ u 2) (+ u 2) (+ u 2) (+ u 2) u00 v v v) (* (+ r u) (+ u 2) (+ u 2) (+ u 2) (+ u 2) v v00 v00)) (* 6 (+ r u) (+ r u) (+ u 2) (+ u 2) (+ u 2) (+ u 2) v) (* 4 (+ r u) (+ r u) (+ r u) (+ u 2) (+ u 2) (+ u 2) (+ u 2) (+ u 2) v v v) (* 4 (+ r u) (+ r u) r00 (+ u 2) (+ u 2) (+ u 2) (+ u 2))) (* 2 (+ r u) (+ u 2) (+ u 2) (+ u 2) (+ u 2) (+ u 2) u00 v)) 0))
			)
		)
	)
)
(check-sat)
(get-proof)
(exit)
